(declare-const |k':42:52:55:58| Int)
(declare-const havoc Int)
(declare-const |havoc:4| Int)
(declare-const |K:49:50:53:56| Int)
(declare-const |j':43:51:54:57| Int)
(declare-const |havoc:2| Int)
(assert (and (<= (+ (- |havoc:4|) 1) 0) (<= (+ (- havoc) |havoc:4|) 0)
               (= |havoc:2| 0)
               (or (not (<= (- |K:49:50:53:56|) 0))
                     (= (+ |j':43:51:54:57| (- |K:49:50:53:56|) (- |havoc:2|)) 0))
               (or (not (<= (- |K:49:50:53:56|) 0))
                     (= (+ |k':42:52:55:58| |K:49:50:53:56| (- havoc)) 0))
               (or (and (= |K:49:50:53:56| 0)
                          (= (+ (- |j':43:51:54:57|) |havoc:2|) 0)
                          (= (+ (- |k':42:52:55:58|) havoc) 0))
                     (and (<= (+ (- |K:49:50:53:56|) 1) 0)
                            (<= (+ |havoc:2| (- |havoc:4|) 1) 0)
                            (<= (- |havoc:2|) 0)
                            (<= (+ |j':43:51:54:57| (- |havoc:4|)) 0)
                            (<= (+ (- |j':43:51:54:57|) 1) 0)))
               (<= (- |K:49:50:53:56|) 0) (< (- |havoc:4|) 0)
               (<= (- |j':43:51:54:57|) 0)
               (< (+ (- |j':43:51:54:57|) |havoc:4| -1) 0)
               (not (<= (- |k':42:52:55:58|) 0))))
(check-sat)
